p cnf 269 533
-1 89 247 0 
-2 3 12 41 51 55 64 94 107 116 138 155 196 201 231 248 -256 -257 -261 -262 -269 -245 0 
-3 2 12 41 51 55 64 94 107 116 138 155 196 201 231 -4 248 -256 -257 -261 -262 -269 -245 0 
-5 10 58 -4 -6 248 -256 -257 -261 -262 -269 -245 0 
-7 103 -8 24 31 50 60 106 168 199 227 -9 246 248 -256 -257 -261 -262 -269 -245 0 
-10 5 58 -11 249 0 
-12 2 3 41 51 55 64 94 107 116 138 155 196 201 231 247 0 
-13 15 38 62 68 95 115 117 143 156 157 158 166 204 224 250 0 
-14 39 54 74 75 85 92 151 167 182 183 188 200 210 232 233 238 -15 13 38 62 68 95 115 117 143 156 157 158 166 204 224 250 0 
-14 39 54 74 75 85 92 151 167 182 183 188 200 210 232 233 238 -15 13 38 62 68 95 115 117 143 156 157 158 166 204 224 251 0 
-13 15 38 62 68 95 115 117 143 156 157 158 166 204 224 251 0 
-16 -17 22 36 37 47 83 105 118 164 222 248 -256 -257 -261 -262 -269 -245 0 
-18 -16 -19 33 139 244 248 -256 -257 -261 -262 -269 -245 0 
-7 103 -20 26 42 248 -256 -257 -261 -262 -269 -245 0 
-21 23 65 127 128 131 142 145 173 194 217 219 220 221 239 248 -256 -257 -261 -262 -269 -245 0 
-22 17 36 37 47 83 105 118 164 222 248 -256 -257 -261 -262 -269 -245 0 
-23 21 65 127 128 131 142 145 173 194 217 219 220 221 239 248 -256 -257 -261 -262 -269 -245 0 
-24 8 31 50 60 106 168 199 227 248 -256 -257 -261 -262 -269 -245 0 
-25 -26 20 42 -27 43 49 61 79 98 99 104 108 112 114 121 122 126 195 206 236 -28 45 119 -29 44 80 120 129 248 -256 -257 -261 -262 -269 -245 0 
-30 72 146 160 165 186 189 202 235 -31 8 24 50 60 106 168 199 227 248 -256 -257 -261 -262 -269 -245 0 
-5 10 58 -32 175 249 0 
-33 19 139 244 -34 56 -35 52 152 174 250 0 
-36 17 22 37 47 83 105 118 164 222 -34 56 -35 52 152 174 251 0 
-36 17 22 37 47 83 105 118 164 222 -34 56 -35 52 152 174 250 0 
-37 17 22 36 47 83 105 118 164 222 250 0 
-38 13 15 62 68 95 115 117 143 156 157 158 166 204 224 -39 14 54 74 75 85 92 151 167 182 183 188 200 210 232 233 238 250 0 
-37 17 22 36 47 83 105 118 164 222 251 0 
-40 193 -41 2 3 12 51 55 64 94 107 116 138 155 196 201 231 251 0 
-42 20 26 -43 27 49 61 79 98 99 104 108 112 114 121 122 126 195 206 236 -25 -44 29 80 120 129 -45 28 119 -46 248 -256 -257 -261 -262 -269 -245 0 
-47 17 22 36 37 83 105 118 164 222 248 -256 -257 -261 -262 -269 -245 0 
-48 180 -42 20 26 -49 27 43 61 79 98 99 104 108 112 114 121 122 126 195 206 236 248 -256 -257 -261 -262 -269 -245 0 
-42 20 26 252 -254 -259 -268 0 
-50 8 24 31 60 106 168 199 227 -35 52 152 174 251 0 
-33 19 139 244 -35 52 152 174 251 0 
-50 8 24 31 60 106 168 199 227 -35 52 152 174 250 0 
-36 17 22 37 47 83 105 118 164 222 -35 52 152 174 251 0 
-36 17 22 37 47 83 105 118 164 222 -35 52 152 174 250 0 
-51 2 3 12 41 55 64 94 107 116 138 155 196 201 231 -52 35 152 174 251 0 
-33 19 139 244 -35 52 152 174 250 0 
-51 2 3 12 41 55 64 94 107 116 138 155 196 201 231 -52 35 152 174 250 0 
-53 69 133 149 216 247 0 
-15 13 38 62 68 95 115 117 143 156 157 158 166 204 224 251 0 
-54 14 39 74 75 85 92 151 167 182 183 188 200 210 232 233 238 250 0 
-55 2 3 12 41 51 64 94 107 116 138 155 196 201 231 250 0 
-54 14 39 74 75 85 92 151 167 182 183 188 200 210 232 233 238 251 0 
-15 13 38 62 68 95 115 117 143 156 157 158 166 204 224 250 0 
-56 34 251 0 
-56 34 250 0 
-57 240 248 -256 -257 -261 -262 -269 -245 0 
-58 5 10 -50 8 24 31 60 106 168 199 227 250 0 
-31 8 24 50 60 106 168 199 227 248 -256 -257 -261 -262 -269 -245 0 
-59 63 113 248 -256 -257 -261 -262 -269 -245 0 
-24 8 31 50 60 106 168 199 227 249 0 
-60 8 24 31 50 106 168 199 227 -42 20 26 -61 27 43 49 79 98 99 104 108 112 114 121 122 126 195 206 236 251 0 
-62 13 15 38 68 95 115 117 143 156 157 158 166 204 224 248 -256 -257 -261 -262 -269 -245 0 
-63 59 113 -64 2 3 12 41 51 55 94 107 116 138 155 196 201 231 -42 20 26 250 0 
-33 19 139 244 251 0 
-65 21 23 127 128 131 142 145 173 194 217 219 220 221 239 247 0 
-66 67 82 150 197 207 208 250 0 
-67 66 82 150 197 207 208 248 -256 -257 -261 -262 -269 -245 0 
-68 13 15 38 62 95 115 117 143 156 157 158 166 204 224 248 -256 -257 -261 -262 -269 -245 0 
-69 53 133 149 216 -42 20 26 247 0 
-32 175 -42 20 26 253 0 
-32 175 -42 20 26 249 0 
-32 175 -42 20 26 247 0 
-57 240 249 0 
-30 72 146 160 165 186 189 202 235 248 -256 -257 -261 -262 -269 -245 0 
-31 8 24 50 60 106 168 199 227 -56 34 248 -256 -257 -261 -262 -269 -245 0 
-51 2 3 12 41 55 64 94 107 116 138 155 196 201 231 -42 20 26 251 0 
-51 2 3 12 41 55 64 94 107 116 138 155 196 201 231 -42 20 26 250 0 
-70 84 91 140 163 177 212 214 223 251 0 
-71 249 0 
-40 193 247 0 
-18 250 0 
-48 180 253 0 
-72 30 146 160 165 186 189 202 235 249 0 
-73 86 88 141 162 190 198 253 0 
-74 14 39 54 75 85 92 151 167 182 183 188 200 210 232 233 238 248 -256 -257 -261 -262 -269 -245 0 
-75 14 39 54 74 85 92 151 167 182 183 188 200 210 232 233 238 -42 20 26 251 0 
-60 8 24 31 50 106 168 199 227 -76 132 209 247 0 
-77 -38 13 15 62 68 95 115 117 143 156 157 158 166 204 224 251 0 
-57 240 -42 20 26 249 0 
-78 -56 34 250 0 
-10 5 58 -79 27 43 49 61 98 99 104 108 112 114 121 122 126 195 206 236 -80 29 44 120 129 247 0 
-81 -56 34 251 0 
-18 -82 66 67 150 197 207 208 -42 20 26 251 0 
-83 17 22 36 37 47 105 118 164 222 -75 14 39 54 74 85 92 151 167 182 183 188 200 210 232 233 238 -42 20 26 251 0 
-18 -75 14 39 54 74 85 92 151 167 182 183 188 200 210 232 233 238 -56 34 250 0 
-68 13 15 38 62 95 115 117 143 156 157 158 166 204 224 249 0 
-84 70 91 140 163 177 212 214 223 251 0 
-85 14 39 54 74 75 92 151 167 182 183 188 200 210 232 233 238 250 0 
-86 73 88 141 162 190 198 251 0 
-56 34 -26 20 42 251 0 
-56 34 -26 20 42 250 0 
-87 211 218 248 -256 -257 -261 -262 -269 -245 0 
-88 73 86 141 162 190 198 251 0 
-69 53 133 149 216 -14 39 54 74 75 85 92 151 167 182 183 188 200 210 232 233 238 247 0 
-88 73 86 141 162 190 198 247 0 
-89 1 -5 10 58 249 0 
-62 13 15 38 68 95 115 117 143 156 157 158 166 204 224 -31 8 24 50 60 106 168 199 227 -90 237 -30 72 146 160 165 186 189 202 235 248 -256 -257 -261 -262 -269 -245 0 
-5 10 58 -30 72 146 160 165 186 189 202 235 -91 70 84 140 163 177 212 214 223 -92 14 39 54 74 75 85 151 167 182 183 188 200 210 232 233 238 248 -256 -257 -261 -262 -269 -245 0 
-40 193 -93 -94 2 3 12 41 51 55 64 107 116 138 155 196 201 231 247 0 
-95 13 15 38 62 68 115 117 143 156 157 158 166 204 224 -96 -97 -42 20 26 250 0 
-26 20 42 -98 27 43 49 61 79 99 104 108 112 114 121 122 126 195 206 236 -80 29 44 120 129 254 -252 -259 -268 0 
-10 5 58 -99 27 43 49 61 79 98 104 108 112 114 121 122 126 195 206 236 -80 29 44 120 129 -100 248 -256 -257 -261 -262 -269 -245 0 
-101 191 228 248 -256 -257 -261 -262 -269 -245 0 
-60 8 24 31 50 106 168 199 227 -56 34 -42 20 26 251 0 
-56 34 -20 26 42 248 -256 -257 -261 -262 -269 -245 0 
-50 8 24 31 60 106 168 199 227 -56 34 -26 20 42 251 0 
-50 8 24 31 60 106 168 199 227 -56 34 -26 20 42 250 0 
-102 123 136 229 -56 34 -42 20 26 253 0 
-103 7 -42 20 26 -104 27 43 49 61 79 98 99 108 112 114 121 122 126 195 206 236 -25 249 0 
-48 180 248 -256 -257 -261 -262 -269 -245 0 
-17 22 36 37 47 83 105 118 164 222 248 -256 -257 -261 -262 -269 -245 0 
-105 17 22 36 37 47 83 118 164 222 248 -256 -257 -261 -262 -269 -245 0 
-106 8 24 31 50 60 168 199 227 248 -256 -257 -261 -262 -269 -245 0 
-107 2 3 12 41 51 55 64 94 116 138 155 196 201 231 248 -256 -257 -261 -262 -269 -245 0 
-5 10 58 -57 240 249 0 
-18 -26 20 42 -108 27 43 49 61 79 98 99 104 112 114 121 122 126 195 206 236 -109 176 187 242 250 0 
-110 -26 20 42 -108 27 43 49 61 79 98 99 104 112 114 121 122 126 195 206 236 -109 176 187 242 251 0 
-8 24 31 50 60 106 168 199 227 248 -256 -257 -261 -262 -269 -245 0 
-111 -57 240 -42 20 26 249 0 
-26 20 42 -46 248 -256 -257 -261 -262 -269 -245 0 
-50 8 24 31 60 106 168 199 227 -10 5 58 -56 34 -46 247 0 
-36 17 22 37 47 83 105 118 164 222 -10 5 58 -56 34 -46 247 0 
-10 5 58 -57 240 -25 -112 27 43 49 61 79 98 99 104 108 114 121 122 126 195 206 236 -80 29 44 120 129 248 -256 -257 -261 -262 -269 -245 0 
-113 59 63 -26 20 42 -114 27 43 49 61 79 98 99 104 108 112 121 122 126 195 206 236 251 0 
-115 13 15 38 62 68 95 117 143 156 157 158 166 204 224 -42 20 26 -46 250 0 
-116 2 3 12 41 51 55 64 94 107 138 155 196 201 231 -20 26 42 -97 250 0 
-111 -26 20 42 -46 247 0 
-117 13 15 38 62 68 95 115 143 156 157 158 166 204 224 248 -256 -257 -261 -262 -269 -245 0 
-118 17 22 36 37 47 83 105 164 222 248 -256 -257 -261 -262 -269 -245 0 
-26 20 42 -108 27 43 49 61 79 98 99 104 112 114 121 122 126 195 206 236 -119 28 45 -120 29 44 80 129 -46 248 -256 -257 -261 -262 -269 -245 0 
-56 34 255 -256 -257 -261 -262 -269 0 
-42 20 26 -56 34 -121 27 43 49 61 79 98 99 104 108 112 114 122 126 195 206 236 256 -257 -261 -262 -269 0 
-20 26 42 -25 -122 27 43 49 61 79 98 99 104 108 112 114 121 126 195 206 236 248 -256 -257 -261 -262 -269 -245 0 
-18 -123 102 136 229 248 -256 -257 -261 -262 -269 -245 0 
-63 59 113 -18 248 -256 -257 -261 -262 -269 -245 0 
-124 -7 103 -9 246 -125 248 -256 -257 -261 -262 -269 -245 0 
-59 63 113 -67 66 82 150 197 207 208 -10 5 58 -30 72 146 160 165 186 189 202 235 248 -256 -257 -261 -262 -269 -245 0 
-42 20 26 -126 27 43 49 61 79 98 99 104 108 112 114 121 122 195 206 236 -25 -44 29 80 120 129 -28 45 119 248 -256 -257 -261 -262 -269 -245 0 
-127 21 23 65 128 131 142 145 173 194 217 219 220 221 239 248 -256 -257 -261 -262 -269 -245 0 
-128 21 23 65 127 131 142 145 173 194 217 219 220 221 239 248 -256 -257 -261 -262 -269 -245 0 
-102 123 136 229 -25 -52 35 152 174 249 0 
-103 7 -20 26 42 -129 29 44 80 120 250 0 
-26 20 42 -130 248 -256 -257 -261 -262 -269 -245 0 
-131 21 23 65 127 128 142 145 173 194 217 219 220 221 239 247 0 
-58 5 10 -50 8 24 31 60 106 168 199 227 251 0 
-132 76 209 250 0 
-36 17 22 37 47 83 105 118 164 222 249 0 
-133 53 69 149 216 247 0 
-116 2 3 12 41 51 55 64 94 107 138 155 196 201 231 250 0 
-134 181 213 251 0 
-116 2 3 12 41 51 55 64 94 107 138 155 196 201 231 251 0 
-135 251 0 
-135 250 0 
-115 13 15 38 62 68 95 117 143 156 157 158 166 204 224 250 0 
-136 102 123 229 253 0 
-115 13 15 38 62 68 95 117 143 156 157 158 166 204 224 251 0 
-102 123 136 229 249 0 
-137 257 -256 -261 -262 -269 0 
-138 2 3 12 41 51 55 64 94 107 116 155 196 201 231 -42 20 26 250 0 
-138 2 3 12 41 51 55 64 94 107 116 155 196 201 231 -42 20 26 247 0 
-138 2 3 12 41 51 55 64 94 107 116 155 196 201 231 -42 20 26 253 0 
-138 2 3 12 41 51 55 64 94 107 116 155 196 201 231 -42 20 26 251 0 
-138 2 3 12 41 51 55 64 94 107 116 155 196 201 231 -42 20 26 249 0 
-139 19 33 244 250 0 
-83 17 22 36 37 47 105 118 164 222 251 0 
-51 2 3 12 41 55 64 94 107 116 138 155 196 201 231 250 0 
-51 2 3 12 41 55 64 94 107 116 138 155 196 201 231 251 0 
-140 70 84 91 163 177 212 214 223 247 0 
-141 73 86 88 162 190 198 251 0 
-141 73 86 88 162 190 198 250 0 
-86 73 88 141 162 190 198 250 0 
-31 8 24 50 60 106 168 199 227 249 0 
-142 21 23 65 127 128 131 145 173 194 217 219 220 221 239 251 0 
-64 2 3 12 41 51 55 94 107 116 138 155 196 201 231 -42 20 26 250 0 
-64 2 3 12 41 51 55 94 107 116 138 155 196 201 231 -42 20 26 251 0 
-82 66 67 150 197 207 208 -51 2 3 12 41 55 64 94 107 116 138 155 196 201 231 -42 20 26 250 0 
-18 -86 73 88 141 162 190 198 -42 20 26 250 0 
-143 13 15 38 62 68 95 115 117 156 157 158 166 204 224 -33 19 139 244 -56 34 250 0 
-30 72 146 160 165 186 189 202 235 -57 240 249 0 
-33 19 139 244 -36 17 22 37 47 83 105 118 164 222 -56 34 251 0 
-72 30 146 160 165 186 189 202 235 248 -256 -257 -261 -262 -269 -245 0 
-144 -42 20 26 251 0 
-145 21 23 65 127 128 131 142 173 194 217 219 220 221 239 -42 20 26 249 0 
-60 8 24 31 50 106 168 199 227 -42 20 26 250 0 
-145 21 23 65 127 128 131 142 173 194 217 219 220 221 239 -42 20 26 253 0 
-145 21 23 65 127 128 131 142 173 194 217 219 220 221 239 -42 20 26 247 0 
-10 5 58 -46 249 0 
-36 17 22 37 47 83 105 118 164 222 -5 10 58 247 0 
-139 19 33 244 251 0 
-115 13 15 38 62 68 95 117 143 156 157 158 166 204 224 -42 20 26 251 0 
-146 30 72 160 165 186 189 202 235 -147 251 0 
-146 30 72 160 165 186 189 202 235 -147 250 0 
-71 -56 34 253 0 
-135 -56 34 251 0 
-110 -56 34 249 0 
-144 -56 34 247 0 
-148 -56 34 250 0 
-102 123 136 229 -149 53 69 133 216 249 0 
-102 123 136 229 -150 66 67 82 197 207 208 249 0 
-102 123 136 229 -151 14 39 54 74 75 85 92 167 182 183 188 200 210 232 233 238 -42 20 26 253 0 
-115 13 15 38 62 68 95 117 143 156 157 158 166 204 224 -42 20 26 247 0 
-10 5 58 -66 67 82 150 197 207 208 -56 34 247 0 
-85 14 39 54 74 75 92 151 167 182 183 188 200 210 232 233 238 251 0 
-148 -56 34 -152 35 52 174 247 0 
-153 -152 35 52 174 248 -256 -257 -261 -262 -269 -245 0 
-154 -42 20 26 -46 253 0 
-48 180 -42 20 26 -25 -49 27 43 61 79 98 99 104 108 112 114 121 122 126 195 206 236 248 -256 -257 -261 -262 -269 -245 0 
-155 2 3 12 41 51 55 64 94 107 116 138 196 201 231 248 -256 -257 -261 -262 -269 -245 0 
-156 13 15 38 62 68 95 115 117 143 157 158 166 204 224 248 -256 -257 -261 -262 -269 -245 0 
-157 13 15 38 62 68 95 115 117 143 156 158 166 204 224 248 -256 -257 -261 -262 -269 -245 0 
-158 13 15 38 62 68 95 115 117 143 156 157 166 204 224 248 -256 -257 -261 -262 -269 -245 0 
-25 248 -256 -257 -261 -262 -269 -245 0 
-159 248 -256 -257 -261 -262 -269 -245 0 
-10 5 58 248 -256 -257 -261 -262 -269 -245 0 
-83 17 22 36 37 47 105 118 164 222 248 -256 -257 -261 -262 -269 -245 0 
-160 30 72 146 165 186 189 202 235 258 -256 -257 -261 -262 -269 0 
-161 179 185 234 255 -256 -257 -261 -262 -269 0 
-83 17 22 36 37 47 105 118 164 222 -42 20 26 250 0 
-32 175 -42 20 26 251 0 
-139 19 33 244 -42 20 26 247 0 
-60 8 24 31 50 106 168 199 227 -42 20 26 253 0 
-83 17 22 36 37 47 105 118 164 222 -42 20 26 -80 29 44 120 129 249 0 
-42 20 26 -80 29 44 120 129 259 -252 -254 -268 0 
-50 8 24 31 60 106 168 199 227 250 0 
-69 53 133 149 216 247 0 
-162 73 86 88 141 190 198 247 0 
-92 14 39 54 74 75 85 151 167 182 183 188 200 210 232 233 238 248 -256 -257 -261 -262 -269 -245 0 
-163 70 84 91 140 177 212 214 223 247 0 
-162 73 86 88 141 190 198 251 0 
-162 73 86 88 141 190 198 250 0 
-162 73 86 88 141 190 198 249 0 
-57 240 253 0 
-36 17 22 37 47 83 105 118 164 222 251 0 
-33 19 139 244 250 0 
-54 14 39 74 75 85 92 151 167 182 183 188 200 210 232 233 238 -116 2 3 12 41 51 55 64 94 107 138 155 196 201 231 -152 35 52 174 250 0 
-116 2 3 12 41 51 55 64 94 107 138 155 196 201 231 -54 14 39 74 75 85 92 151 167 182 183 188 200 210 232 233 238 -152 35 52 174 251 0 
-83 17 22 36 37 47 105 118 164 222 -51 2 3 12 41 55 64 94 107 116 138 155 196 201 231 -42 20 26 251 0 
-164 17 22 36 37 47 83 105 118 222 251 0 
-165 30 72 146 160 186 189 202 235 -64 2 3 12 41 51 55 94 107 116 138 155 196 201 231 -42 20 26 251 0 
-166 13 15 38 62 68 95 115 117 143 156 157 158 204 224 -167 14 39 54 74 75 85 92 151 182 183 188 200 210 232 233 238 -42 20 26 250 0 
-168 8 24 31 50 60 106 199 227 -51 2 3 12 41 55 64 94 107 116 138 155 196 201 231 -42 20 26 250 0 
-165 30 72 146 160 186 189 202 235 -64 2 3 12 41 51 55 94 107 116 138 155 196 201 231 -42 20 26 250 0 
-169 247 0 
-166 13 15 38 62 68 95 115 117 143 156 157 158 204 224 -167 14 39 54 74 75 85 92 151 182 183 188 200 210 232 233 238 251 0 
-166 13 15 38 62 68 95 115 117 143 156 157 158 204 224 -167 14 39 54 74 75 85 92 151 182 183 188 200 210 232 233 238 250 0 
-40 193 -51 2 3 12 41 55 64 94 107 116 138 155 196 201 231 -170 251 0 
-171 250 0 
-75 14 39 54 74 85 92 151 167 182 183 188 200 210 232 233 238 -42 20 26 250 0 
-82 66 67 150 197 207 208 -115 13 15 38 62 68 95 117 143 156 157 158 166 204 224 251 0 
-40 193 -59 63 113 -10 5 58 249 0 
-172 -136 102 123 229 253 0 
-75 14 39 54 74 85 92 151 167 182 183 188 200 210 232 233 238 250 0 
-60 8 24 31 50 106 168 199 227 -167 14 39 54 74 75 85 92 151 182 183 188 200 210 232 233 238 -56 34 251 0 
-60 8 24 31 50 106 168 199 227 -167 14 39 54 74 75 85 92 151 182 183 188 200 210 232 233 238 -56 34 250 0 
-115 13 15 38 62 68 95 117 143 156 157 158 166 204 224 -42 20 26 249 0 
-173 21 23 65 127 128 131 142 145 194 217 219 220 221 239 249 0 
-115 13 15 38 62 68 95 117 143 156 157 158 166 204 224 -174 35 52 152 247 0 
-173 21 23 65 127 128 131 142 145 194 217 219 220 221 239 247 0 
-173 21 23 65 127 128 131 142 145 194 217 219 220 221 239 253 0 
-103 7 -143 13 15 38 62 68 95 115 117 156 157 158 166 204 224 -36 17 22 37 47 83 105 118 164 222 -20 26 42 250 0 
-146 30 72 160 165 186 189 202 235 -66 67 82 150 197 207 208 -56 34 251 0 
-146 30 72 160 165 186 189 202 235 -85 14 39 54 74 75 92 151 167 182 183 188 200 210 232 233 238 -56 34 250 0 
-102 123 136 229 -175 32 249 0 
-60 8 24 31 50 106 168 199 227 -167 14 39 54 74 75 85 92 151 182 183 188 200 210 232 233 238 -42 20 26 251 0 
-60 8 24 31 50 106 168 199 227 -167 14 39 54 74 75 85 92 151 182 183 188 200 210 232 233 238 -42 20 26 250 0 
-176 109 187 242 250 0 
-176 109 187 242 251 0 
-50 8 24 31 60 106 168 199 227 -63 59 113 -36 17 22 37 47 83 105 118 164 222 -35 52 152 174 251 0 
-177 70 84 91 140 163 212 214 223 260 0 
-178 261 -256 -257 -262 -269 0 
-179 161 185 234 -42 20 26 262 -256 -257 -261 -269 0 
-63 59 113 -101 191 228 -42 20 26 249 0 
-145 21 23 65 127 128 131 142 173 194 217 219 220 221 239 -42 20 26 250 0 
-180 48 249 0 
-181 134 213 -26 20 42 258 -256 -257 -261 -262 -269 0 
-182 14 39 54 74 75 85 92 151 167 183 188 200 210 232 233 238 -42 20 26 263 -21 -23 -65 -127 -128 -131 -142 -145 -173 -194 -217 -219 -220 -221 -239 -256 -257 -261 -262 -269 0 
-183 14 39 54 74 75 85 92 151 167 182 188 200 210 232 233 238 -42 20 26 251 0 
-70 84 91 140 163 177 212 214 223 -42 20 26 253 0 
-48 180 -56 34 250 0 
-48 180 -56 34 251 0 
-33 19 139 244 -143 13 15 38 62 68 95 115 117 156 157 158 166 204 224 -56 34 -20 26 42 250 0 
-57 240 -10 5 58 249 0 
-33 19 139 244 -143 13 15 38 62 68 95 115 117 156 157 158 166 204 224 -56 34 -20 26 42 251 0 
-33 19 139 244 -143 13 15 38 62 68 95 115 117 156 157 158 166 204 224 -56 34 -20 26 42 250 0 
-40 193 251 0 
-110 250 0 
-184 248 -256 -257 -261 -262 -269 -245 0 
-48 180 -185 161 179 234 248 -256 -257 -261 -262 -269 -245 0 
-103 7 -167 14 39 54 74 75 85 92 151 182 183 188 200 210 232 233 238 -38 13 15 62 68 95 115 117 143 156 157 158 166 204 224 251 0 
-186 30 72 146 160 165 189 202 235 249 0 
-57 240 -102 123 136 229 248 -256 -257 -261 -262 -269 -245 0 
-33 19 139 244 -143 13 15 38 62 68 95 115 117 156 157 158 166 204 224 -56 34 250 0 
-33 19 139 244 -143 13 15 38 62 68 95 115 117 156 157 158 166 204 224 -56 34 251 0 
-62 13 15 38 68 95 115 117 143 156 157 158 166 204 224 249 0 
-185 161 179 234 -187 109 176 242 248 -256 -257 -261 -262 -269 -245 0 
-48 180 -185 161 179 234 -25 248 -256 -257 -261 -262 -269 -245 0 
-38 13 15 62 68 95 115 117 143 156 157 158 166 204 224 -42 20 26 250 0 
-136 102 123 229 247 0 
-115 13 15 38 62 68 95 117 143 156 157 158 166 204 224 247 0 
-48 180 -30 72 146 160 165 186 189 202 235 -62 13 15 38 68 95 115 117 143 156 157 158 166 204 224 248 -256 -257 -261 -262 -269 -245 0 
-82 66 67 150 197 207 208 -51 2 3 12 41 55 64 94 107 116 138 155 196 201 231 -42 20 26 251 0 
-188 14 39 54 74 75 85 92 151 167 182 183 200 210 232 233 238 249 0 
-189 30 72 146 160 165 186 202 235 251 0 
-190 73 86 88 141 162 198 -38 13 15 62 68 95 115 117 143 156 157 158 166 204 224 -42 20 26 251 0 
-190 73 86 88 141 162 198 -38 13 15 62 68 95 115 117 143 156 157 158 166 204 224 -42 20 26 250 0 
-141 73 86 88 162 190 198 -64 2 3 12 41 51 55 94 107 116 138 155 196 201 231 -42 20 26 251 0 
-51 2 3 12 41 55 64 94 107 116 138 155 196 201 231 -191 101 228 -86 73 88 141 162 190 198 251 0 
-141 73 86 88 162 190 198 -64 2 3 12 41 51 55 94 107 116 138 155 196 201 231 -42 20 26 250 0 
-51 2 3 12 41 55 64 94 107 116 138 155 196 201 231 -191 101 228 -86 73 88 141 162 190 198 250 0 
-75 14 39 54 74 85 92 151 167 182 183 188 200 210 232 233 238 -51 2 3 12 41 55 64 94 107 116 138 155 196 201 231 -42 20 26 250 0 
-75 14 39 54 74 85 92 151 167 182 183 188 200 210 232 233 238 -51 2 3 12 41 55 64 94 107 116 138 155 196 201 231 -42 20 26 251 0 
-58 5 10 -56 34 250 0 
-58 5 10 -56 34 251 0 
-192 257 -256 -261 -262 -269 0 
-30 72 146 160 165 186 189 202 235 -56 34 248 -256 -257 -261 -262 -269 -245 0 
-51 2 3 12 41 55 64 94 107 116 138 155 196 201 231 -20 26 42 -46 251 0 
-42 20 26 -25 251 0 
-42 20 26 -25 250 0 
-193 40 -152 35 52 174 249 0 
-153 -174 35 52 152 248 -256 -257 -261 -262 -269 -245 0 
-10 5 58 -56 34 251 0 
-101 191 228 -56 34 -52 35 152 174 248 -256 -257 -261 -262 -269 -245 0 
-139 19 33 244 -42 20 26 251 0 
-193 40 -42 20 26 -25 249 0 
-10 5 58 -56 34 250 0 
-71 -42 20 26 -46 247 0 
-116 2 3 12 41 51 55 64 94 107 138 155 196 201 231 -174 35 52 152 250 0 
-40 193 -194 21 23 65 127 128 131 142 145 173 217 219 220 221 239 -58 5 10 251 0 
-55 2 3 12 41 51 64 94 107 116 138 155 196 201 231 -14 39 54 74 75 85 92 151 167 182 183 188 200 210 232 233 238 251 0 
-55 2 3 12 41 51 64 94 107 116 138 155 196 201 231 -14 39 54 74 75 85 92 151 167 182 183 188 200 210 232 233 238 250 0 
-40 193 -194 21 23 65 127 128 131 142 145 173 217 219 220 221 239 -58 5 10 250 0 
-14 39 54 74 75 85 92 151 167 182 183 188 200 210 232 233 238 -56 34 251 0 
-14 39 54 74 75 85 92 151 167 182 183 188 200 210 232 233 238 -56 34 250 0 
-152 35 52 174 248 -256 -257 -261 -262 -269 -245 0 
-42 20 26 -195 27 43 49 61 79 98 99 104 108 112 114 121 122 126 206 236 248 -256 -257 -261 -262 -269 -245 0 
-38 13 15 62 68 95 115 117 143 156 157 158 166 204 224 -97 -42 20 26 247 0 
-38 13 15 62 68 95 115 117 143 156 157 158 166 204 224 -97 -42 20 26 253 0 
-42 20 26 -126 27 43 49 61 79 98 99 104 108 112 114 121 122 195 206 236 -25 -44 29 80 120 129 248 -256 -257 -261 -262 -269 -245 0 
-32 175 -25 -42 20 26 251 0 
-32 175 -25 -42 20 26 250 0 
-95 13 15 38 62 68 115 117 143 156 157 158 166 204 224 -96 -97 -42 20 26 251 0 
-94 2 3 12 41 51 55 64 107 116 138 155 196 201 231 251 0 
-77 -196 2 3 12 41 51 55 64 94 107 116 138 155 201 231 -38 13 15 62 68 95 115 117 143 156 157 158 166 204 224 -167 14 39 54 74 75 85 92 151 182 183 188 200 210 232 233 238 -42 20 26 250 0 
-14 39 54 74 75 85 92 151 167 182 183 188 200 210 232 233 238 -55 2 3 12 41 51 64 94 107 116 138 155 196 201 231 250 0 
-197 66 67 82 150 207 208 -198 73 86 88 141 162 190 -42 20 26 250 0 
-199 8 24 31 50 60 106 168 227 250 0 
-200 14 39 54 74 75 85 92 151 167 182 183 188 210 232 233 238 250 0 
-62 13 15 38 68 95 115 117 143 156 157 158 166 204 224 -30 72 146 160 165 186 189 202 235 -90 237 -31 8 24 50 60 106 168 199 227 248 -256 -257 -261 -262 -269 -245 0 
-201 2 3 12 41 51 55 64 94 107 116 138 155 196 231 250 0 
-202 30 72 146 160 165 186 189 235 -18 -203 248 -256 -257 -261 -262 -269 -245 0 
-198 73 86 88 141 162 190 -197 66 67 82 150 207 208 -42 20 26 251 0 
-14 39 54 74 75 85 92 151 167 182 183 188 200 210 232 233 238 -15 13 38 62 68 95 115 117 143 156 157 158 166 204 224 251 0 
-204 13 15 38 62 68 95 115 117 143 156 157 158 166 224 251 0 
-59 63 113 -20 26 42 248 -256 -257 -261 -262 -269 -245 0 
-94 2 3 12 41 51 55 64 107 116 138 155 196 201 231 250 0 
-199 8 24 31 50 60 106 168 227 251 0 
-205 226 230 -42 20 26 -25 -206 27 43 49 61 79 98 99 104 108 112 114 121 122 126 195 236 -44 29 80 120 129 250 0 
-139 19 33 244 -32 175 -96 -97 -42 20 26 250 0 
-207 66 67 82 150 197 208 -96 -97 -42 20 26 251 0 
-136 102 123 229 -42 20 26 253 0 
-207 66 67 82 150 197 208 -42 20 26 251 0 
-42 20 26 264 0 
-57 240 -58 5 10 -46 251 0 
-208 66 67 82 150 197 207 -42 20 26 247 0 
-167 14 39 54 74 75 85 92 151 182 183 188 200 210 232 233 238 -196 2 3 12 41 51 55 64 94 107 116 138 155 201 231 -42 20 26 251 0 
-113 59 63 -56 34 251 0 
-10 5 58 -57 240 -56 34 248 -256 -257 -261 -262 -269 -245 0 
-209 76 132 247 0 
-164 17 22 36 37 47 83 105 118 222 250 0 
-83 17 22 36 37 47 105 118 164 222 -51 2 3 12 41 55 64 94 107 116 138 155 196 201 231 250 0 
-115 13 15 38 62 68 95 117 143 156 157 158 166 204 224 -42 20 26 -11 250 0 
-210 14 39 54 74 75 85 92 151 167 182 183 188 200 232 233 238 -42 20 26 247 0 
-210 14 39 54 74 75 85 92 151 167 182 183 188 200 232 233 238 -42 20 26 253 0 
-101 191 228 -211 87 218 248 -256 -257 -261 -262 -269 -245 0 
-115 13 15 38 62 68 95 117 143 156 157 158 166 204 224 -96 -97 250 0 
-115 13 15 38 62 68 95 117 143 156 157 158 166 204 224 -96 -97 251 0 
-57 240 -42 20 26 -96 -97 248 -256 -257 -261 -262 -269 -245 0 
-48 180 -110 -146 30 72 160 165 186 189 202 235 -50 8 24 31 60 106 168 199 227 -56 34 -96 -97 251 0 
-66 67 82 150 197 207 208 -56 34 -96 -97 250 0 
-111 -26 20 42 -11 247 0 
-103 7 -196 2 3 12 41 51 55 64 94 107 116 138 155 201 231 -38 13 15 62 68 95 115 117 143 156 157 158 166 204 224 -42 20 26 251 0 
-103 7 -196 2 3 12 41 51 55 64 94 107 116 138 155 201 231 -38 13 15 62 68 95 115 117 143 156 157 158 166 204 224 -42 20 26 250 0 
-25 -11 248 -256 -257 -261 -262 -269 -245 0 
-32 175 -115 13 15 38 62 68 95 117 143 156 157 158 166 204 224 -97 -42 20 26 251 0 
-32 175 -115 13 15 38 62 68 95 117 143 156 157 158 166 204 224 -97 -42 20 26 250 0 
-148 -42 20 26 -25 -43 27 49 61 79 98 99 104 108 112 114 121 122 126 195 206 236 -45 28 119 247 0 
-64 2 3 12 41 51 55 94 107 116 138 155 196 201 231 -97 -42 20 26 250 0 
-64 2 3 12 41 51 55 94 107 116 138 155 196 201 231 -97 -42 20 26 251 0 
-207 66 67 82 150 197 208 -42 20 26 250 0 
-141 73 86 88 162 190 198 -96 -97 -42 20 26 250 0 
-141 73 86 88 162 190 198 -96 -97 -42 20 26 251 0 
-115 13 15 38 62 68 95 117 143 156 157 158 166 204 224 -149 53 69 133 216 -42 20 26 -96 -97 247 0 
-14 39 54 74 75 85 92 151 167 182 183 188 200 210 232 233 238 -26 20 42 250 0 
-14 39 54 74 75 85 92 151 167 182 183 188 200 210 232 233 238 -26 20 42 251 0 
-38 13 15 62 68 95 115 117 143 156 157 158 166 204 224 -42 20 26 251 0 
-42 20 26 -97 248 -256 -257 -261 -262 -269 -245 0 
-42 20 26 248 -256 -257 -261 -262 -269 -245 0 
-207 66 67 82 150 197 208 -42 20 26 253 0 
-141 73 86 88 162 190 198 -42 20 26 247 0 
-83 17 22 36 37 47 105 118 164 222 -167 14 39 54 74 75 85 92 151 182 183 188 200 210 232 233 238 -60 8 24 31 50 106 168 199 227 -42 20 26 250 0 
-83 17 22 36 37 47 105 118 164 222 -167 14 39 54 74 75 85 92 151 182 183 188 200 210 232 233 238 -60 8 24 31 50 106 168 199 227 -42 20 26 251 0 
-149 53 69 133 216 -101 191 228 -25 249 0 
-162 73 86 88 141 190 198 -42 20 26 253 0 
-165 30 72 146 160 186 189 202 235 -149 53 69 133 216 -42 20 26 -25 247 0 
-101 191 228 -25 -42 20 26 249 0 
-56 34 -42 20 26 248 -256 -257 -261 -262 -269 -245 0 
-135 -149 53 69 133 216 -42 20 26 247 0 
-60 8 24 31 50 106 168 199 227 -42 20 26 251 0 
-139 19 33 244 -32 175 -96 -97 -42 20 26 251 0 
-64 2 3 12 41 51 55 94 107 116 138 155 196 201 231 -97 250 0 
-101 191 228 -96 -97 249 0 
-210 14 39 54 74 75 85 92 151 167 182 183 188 200 232 233 238 -42 20 26 251 0 
-154 -42 20 26 -11 253 0 
-60 8 24 31 50 106 168 199 227 -32 175 -42 20 26 251 0 
-18 -32 175 -42 20 26 250 0 
-63 59 113 248 -256 -257 -261 -262 -269 -245 0 
-136 102 123 229 -56 34 253 0 
-141 73 86 88 162 190 198 -42 20 26 251 0 
-141 73 86 88 162 190 198 -42 20 26 250 0 
-196 2 3 12 41 51 55 64 94 107 116 138 155 201 231 -38 13 15 62 68 95 115 117 143 156 157 158 166 204 224 -42 20 26 251 0 
-196 2 3 12 41 51 55 64 94 107 116 138 155 201 231 -38 13 15 62 68 95 115 117 143 156 157 158 166 204 224 -42 20 26 250 0 
-165 30 72 146 160 186 189 202 235 -42 20 26 250 0 
-148 -42 20 26 251 0 
-103 7 -212 70 84 91 140 163 177 214 223 -57 240 249 0 
-48 180 -64 2 3 12 41 51 55 94 107 116 138 155 196 201 231 -165 30 72 146 160 186 189 202 235 -207 66 67 82 150 197 208 251 0 
-64 2 3 12 41 51 55 94 107 116 138 155 196 201 231 -42 20 26 247 0 
-32 175 -51 2 3 12 41 55 64 94 107 116 138 155 196 201 231 -42 20 26 253 0 
-93 -101 191 228 -42 20 26 249 0 
-165 30 72 146 160 186 189 202 235 -60 8 24 31 50 106 168 199 227 -42 20 26 250 0 
-165 30 72 146 160 186 189 202 235 -60 8 24 31 50 106 168 199 227 -42 20 26 251 0 
-168 8 24 31 50 60 106 199 227 -144 -42 20 26 250 0 
-168 8 24 31 50 60 106 199 227 -144 -42 20 26 251 0 
-166 13 15 38 62 68 95 115 117 143 156 157 158 204 224 -144 -42 20 26 251 0 
-146 30 72 160 165 186 189 202 235 250 0 
-36 17 22 37 47 83 105 118 164 222 -56 34 250 0 
-36 17 22 37 47 83 105 118 164 222 -56 34 251 0 
-136 102 123 229 -56 34 251 0 
-40 193 -213 134 181 -115 13 15 38 62 68 95 117 143 156 157 158 166 204 224 251 0 
-165 30 72 146 160 186 189 202 235 -60 8 24 31 50 106 168 199 227 -56 34 250 0 
-213 134 181 -115 13 15 38 62 68 95 117 143 156 157 158 166 204 224 250 0 
-214 70 84 91 140 163 177 212 223 247 0 
-103 7 -213 134 181 -136 102 123 229 253 0 
-136 102 123 229 -56 34 247 0 
-213 134 181 253 0 
-101 191 228 -9 246 -215 251 0 
-101 191 228 -9 246 -215 250 0 
-143 13 15 38 62 68 95 115 117 156 157 158 166 204 224 -56 34 250 0 
-143 13 15 38 62 68 95 115 117 156 157 158 166 204 224 -56 34 251 0 
-32 175 -42 20 26 250 0 
-77 -19 33 139 244 248 -256 -257 -261 -262 -269 -245 0 
-144 -42 20 26 250 0 
-136 102 123 229 -56 34 250 0 
-136 102 123 229 -56 34 249 0 
-135 -42 20 26 251 0 
-83 17 22 36 37 47 105 118 164 222 -42 20 26 251 0 
-216 53 69 133 149 249 0 
-76 132 209 -42 20 26 247 0 
-42 20 26 258 -256 -257 -261 -262 -269 0 
-42 20 26 265 -256 -257 -261 -262 -269 -53 -69 -133 -149 -216 0 
-42 20 26 266 -256 -257 -261 -262 -269 0 
-217 21 23 65 127 128 131 142 145 173 194 219 220 221 239 248 -256 -257 -261 -262 -269 -245 0 
-20 26 42 255 -256 -257 -261 -262 -269 0 
-218 87 211 248 -256 -257 -261 -262 -269 -245 0 
-101 191 228 -56 34 -42 20 26 248 -256 -257 -261 -262 -269 -245 0 
-116 2 3 12 41 51 55 64 94 107 138 155 196 201 231 -20 26 42 250 0 
-50 8 24 31 60 106 168 199 227 -34 56 -35 52 152 174 250 0 
-50 8 24 31 60 106 168 199 227 -34 56 -35 52 152 174 251 0 
-33 19 139 244 -34 56 -35 52 152 174 251 0 
-194 21 23 65 127 128 131 142 145 173 217 219 220 221 239 -116 2 3 12 41 51 55 64 94 107 138 155 196 201 231 250 0 
-219 21 23 65 127 128 131 142 145 173 194 217 220 221 239 -25 248 -256 -257 -261 -262 -269 -245 0 
-220 21 23 65 127 128 131 142 145 173 194 217 219 221 239 248 -256 -257 -261 -262 -269 -245 0 
-221 21 23 65 127 128 131 142 145 173 194 217 219 220 239 248 -256 -257 -261 -262 -269 -245 0 
-222 17 22 36 37 47 83 105 118 164 248 -256 -257 -261 -262 -269 -245 0 
-223 70 84 91 140 163 177 212 214 248 -256 -257 -261 -262 -269 -245 0 
-224 13 15 38 62 68 95 115 117 143 156 157 158 166 204 249 0 
-225 267 0 
-226 205 230 -38 13 15 62 68 95 115 117 143 156 157 158 166 204 224 250 0 
-139 19 33 244 -38 13 15 62 68 95 115 117 143 156 157 158 166 204 224 251 0 
-42 20 26 268 -252 -254 -259 0 
-64 2 3 12 41 51 55 94 107 116 138 155 196 201 231 250 0 
-50 8 24 31 60 106 168 199 227 -56 34 251 0 
-227 8 24 31 50 60 106 168 199 257 -256 -261 -262 -269 0 
-228 101 191 -42 20 26 251 0 
-229 102 123 136 -42 20 26 247 0 
-230 205 226 -42 20 26 250 0 
-172 247 0 
-231 2 3 12 41 51 55 64 94 107 116 138 155 196 201 250 0 
-231 2 3 12 41 51 55 64 94 107 116 138 155 196 201 251 0 
-232 14 39 54 74 75 85 92 151 167 182 183 188 200 210 233 238 253 0 
-231 2 3 12 41 51 55 64 94 107 116 138 155 196 201 249 0 
-33 19 139 244 -56 34 250 0 
-67 66 82 150 197 207 208 249 0 
-233 14 39 54 74 75 85 92 151 167 182 183 188 200 210 232 238 249 0 
-40 193 -48 180 -234 161 179 185 -10 5 58 249 0 
-235 30 72 146 160 165 186 189 202 257 -256 -261 -262 -269 0 
-175 32 -149 53 69 133 216 -60 8 24 31 50 106 168 199 227 -42 20 26 250 0 
-175 32 -149 53 69 133 216 -60 8 24 31 50 106 168 199 227 -42 20 26 251 0 
-154 -172 -136 102 123 229 253 0 
-172 253 0 
-115 13 15 38 62 68 95 117 143 156 157 158 166 204 224 -175 32 247 0 
-139 19 33 244 -42 20 26 -236 27 43 49 61 79 98 99 104 108 112 114 121 122 126 195 206 -120 29 44 80 129 250 0 
-237 90 263 -21 -23 -65 -127 -128 -131 -142 -145 -173 -194 -217 -219 -220 -221 -239 -256 -257 -261 -262 -269 0 
-101 191 228 -42 20 26 249 0 
-238 14 39 54 74 75 85 92 151 167 182 183 188 200 210 232 233 249 0 
-239 21 23 65 127 128 131 142 145 173 194 217 219 220 221 248 -256 -257 -261 -262 -269 -245 0 
-148 -56 34 251 0 
-148 -56 34 247 0 
-48 180 -56 34 253 0 
-135 -56 34 250 0 
-58 5 10 248 -256 -257 -261 -262 -269 -245 0 
-229 102 123 136 -42 20 26 250 0 
-229 102 123 136 -42 20 26 251 0 
-228 101 191 -240 57 -230 205 226 -42 20 26 250 0 
-230 205 226 -240 57 -228 101 191 -42 20 26 251 0 
-166 13 15 38 62 68 95 115 117 143 156 157 158 204 224 -144 -42 20 26 250 0 
-50 8 24 31 60 106 168 199 227 -241 -36 17 22 37 47 83 105 118 164 222 -56 34 250 0 
-33 19 139 244 -56 34 251 0 
-242 109 176 187 248 -256 -257 -261 -262 -269 -245 0 
-243 269 -256 -257 -261 -262 0 
-40 193 -172 -115 13 15 38 62 68 95 117 143 156 157 158 166 204 224 250 0 
-38 13 15 62 68 95 115 117 143 156 157 158 166 204 224 251 0 
-38 13 15 62 68 95 115 117 143 156 157 158 166 204 224 250 0 
-196 2 3 12 41 51 55 64 94 107 116 138 155 201 231 -42 20 26 250 0 
-196 2 3 12 41 51 55 64 94 107 116 138 155 201 231 -42 20 26 251 0 
-63 59 113 -226 205 230 -115 13 15 38 62 68 95 117 143 156 157 158 166 204 224 -42 20 26 250 0 
-63 59 113 -226 205 230 -115 13 15 38 62 68 95 117 143 156 157 158 166 204 224 -42 20 26 251 0 
-244 19 33 139 -57 240 249 0 
-245 -32 175 247 0 
-24 8 31 50 60 106 168 199 227 -42 20 26 248 -256 -257 -261 -262 -269 -245 0 
-246 9 -68 13 15 38 62 95 115 117 143 156 157 158 166 204 224 -42 20 26 248 -256 -257 -261 -262 -269 -245 0 
